c vehicle routing problem with time windows
c solomon R206_25
c
c problem vertices edges capacity
p vrptw 27 650 1000
c
c vertex a b demand x y
v 0 0 10000 0 35 35
v 1 0 9740 10 41 49
v 2 0 9720 7 35 17
v 3 0 9670 13 55 45
v 4 6200 8600 19 55 20
v 5 0 9690 26 15 30
v 6 3450 5850 3 25 30
v 7 0 9680 5 20 50
v 8 3230 5630 9 10 43
v 9 3290 5690 16 55 60
v 10 4850 7250 16 30 60
v 11 1460 3860 12 20 65
v 12 0 9750 19 50 35
v 13 6390 8790 23 30 25
v 14 320 2720 20 15 10
v 15 1180 3580 8 30 5
v 16 2030 4430 19 10 20
v 17 6820 9220 2 5 30
v 18 2860 5260 12 20 40
v 19 2040 4440 17 15 60
v 20 5040 7440 9 45 65
v 21 0 9710 11 45 20
v 22 3320 5720 18 45 10
v 23 1460 3860 29 55 5
v 24 6560 8960 3 65 35
v 25 7160 9560 6 65 20
v 26 0 10000 0 35 35
c
c source target cost time
a 0 1 152 152
a 0 2 180 180
a 0 3 223 223
a 0 4 250 250
a 0 5 206 206
a 0 6 111 111
a 0 7 212 212
a 0 8 262 262
a 0 9 320 320
a 0 10 254 254
a 0 11 335 335
a 0 12 150 150
a 0 13 111 111
a 0 14 320 320
a 0 15 304 304
a 0 16 291 291
a 0 17 304 304
a 0 18 158 158
a 0 19 320 320
a 0 20 316 316
a 0 21 180 180
a 0 22 269 269
a 0 23 360 360
a 0 24 300 300
a 0 25 335 335
a 1 2 325 425
a 1 3 145 245
a 1 4 322 422
a 1 5 322 422
a 1 6 248 348
a 1 7 210 310
a 1 8 315 415
a 1 9 178 278
a 1 10 155 255
a 1 11 264 364
a 1 12 166 266
a 1 13 264 364
a 1 14 468 568
a 1 15 453 553
a 1 16 424 524
a 1 17 407 507
a 1 18 228 328
a 1 19 282 382
a 1 20 164 264
a 1 21 292 392
a 1 22 392 492
a 1 23 461 561
a 1 24 277 377
a 1 25 376 476
a 1 26 152 252
a 2 1 325 425
a 2 3 344 444
a 2 4 202 302
a 2 5 238 338
a 2 6 164 264
a 2 7 362 462
a 2 8 360 460
a 2 9 474 574
a 2 10 432 532
a 2 11 502 602
a 2 12 234 334
a 2 13 94 194
a 2 14 211 311
a 2 15 130 230
a 2 16 251 351
a 2 17 326 426
a 2 18 274 374
a 2 19 474 574
a 2 20 490 590
a 2 21 104 204
a 2 22 122 222
a 2 23 233 333
a 2 24 349 449
a 2 25 301 401
a 2 26 180 280
a 3 1 145 245
a 3 2 344 444
a 3 4 250 350
a 3 5 427 527
a 3 6 335 435
a 3 7 353 453
a 3 8 450 550
a 3 9 150 250
a 3 10 291 391
a 3 11 403 503
a 3 12 111 211
a 3 13 320 420
a 3 14 531 631
a 3 15 471 571
a 3 16 514 614
a 3 17 522 622
a 3 18 353 453
a 3 19 427 527
a 3 20 223 323
a 3 21 269 369
a 3 22 364 464
a 3 23 400 500
a 3 24 141 241
a 3 25 269 369
a 3 26 223 323
a 4 1 322 422
a 4 2 202 302
a 4 3 250 350
a 4 5 412 512
a 4 6 316 416
a 4 7 460 560
a 4 8 505 605
a 4 9 400 500
a 4 10 471 571
a 4 11 570 670
a 4 12 158 258
a 4 13 254 354
a 4 14 412 512
a 4 15 291 391
a 4 16 450 550
a 4 17 509 609
a 4 18 403 503
a 4 19 565 665
a 4 20 460 560
a 4 21 100 200
a 4 22 141 241
a 4 23 150 250
a 4 24 180 280
a 4 25 100 200
a 4 26 250 350
a 5 1 322 422
a 5 2 238 338
a 5 3 427 527
a 5 4 412 512
a 5 6 100 200
a 5 7 206 306
a 5 8 139 239
a 5 9 500 600
a 5 10 335 435
a 5 11 353 453
a 5 12 353 453
a 5 13 158 258
a 5 14 200 300
a 5 15 291 391
a 5 16 111 211
a 5 17 100 200
a 5 18 111 211
a 5 19 300 400
a 5 20 460 560
a 5 21 316 416
a 5 22 360 460
a 5 23 471 571
a 5 24 502 602
a 5 25 509 609
a 5 26 206 306
a 6 1 248 348
a 6 2 164 264
a 6 3 335 435
a 6 4 316 416
a 6 5 100 200
a 6 7 206 306
a 6 8 198 298
a 6 9 424 524
a 6 10 304 404
a 6 11 353 453
a 6 12 254 354
a 6 13 70 170
a 6 14 223 323
a 6 15 254 354
a 6 16 180 280
a 6 17 200 300
a 6 18 111 211
a 6 19 316 416
a 6 20 403 503
a 6 21 223 323
a 6 22 282 382
a 6 23 390 490
a 6 24 403 503
a 6 25 412 512
a 6 26 111 211
a 7 1 210 310
a 7 2 362 462
a 7 3 353 453
a 7 4 460 560
a 7 5 206 306
a 7 6 206 306
a 7 8 122 222
a 7 9 364 464
a 7 10 141 241
a 7 11 150 250
a 7 12 335 435
a 7 13 269 369
a 7 14 403 503
a 7 15 460 560
a 7 16 316 416
a 7 17 250 350
a 7 18 100 200
a 7 19 111 211
a 7 20 291 391
a 7 21 390 490
a 7 22 471 571
a 7 23 570 670
a 7 24 474 574
a 7 25 540 640
a 7 26 212 312
a 8 1 315 415
a 8 2 360 460
a 8 3 450 550
a 8 4 505 605
a 8 5 139 239
a 8 6 198 298
a 8 7 122 222
a 8 9 481 581
a 8 10 262 362
a 8 11 241 341
a 8 12 407 507
a 8 13 269 369
a 8 14 333 433
a 8 15 429 529
a 8 16 230 330
a 8 17 139 239
a 8 18 104 204
a 8 19 177 277
a 8 20 413 513
a 8 21 418 518
a 8 22 481 581
a 8 23 588 688
a 8 24 555 655
a 8 25 596 696
a 8 26 262 362
a 9 1 178 278
a 9 2 474 574
a 9 3 150 250
a 9 4 400 500
a 9 5 500 600
a 9 6 424 524
a 9 7 364 464
a 9 8 481 581
a 9 10 250 350
a 9 11 353 453
a 9 12 254 354
a 9 13 430 530
a 9 14 640 740
a 9 15 604 704
a 9 16 602 702
a 9 17 583 683
a 9 18 403 503
a 9 19 400 500
a 9 20 111 211
a 9 21 412 512
a 9 22 509 609
a 9 23 550 650
a 9 24 269 369
a 9 25 412 512
a 9 26 320 420
a 10 1 155 255
a 10 2 432 532
a 10 3 291 391
a 10 4 471 571
a 10 5 335 435
a 10 6 304 404
a 10 7 141 241
a 10 8 262 362
a 10 9 250 350
a 10 11 111 211
a 10 12 320 420
a 10 13 350 450
a 10 14 522 622
a 10 15 550 650
a 10 16 447 547
a 10 17 390 490
a 10 18 223 323
a 10 19 150 250
a 10 20 158 258
a 10 21 427 527
a 10 22 522 622
a 10 23 604 704
a 10 24 430 530
a 10 25 531 631
a 10 26 254 354
a 11 1 264 364
a 11 2 502 602
a 11 3 403 503
a 11 4 570 670
a 11 5 353 453
a 11 6 353 453
a 11 7 150 250
a 11 8 241 341
a 11 9 353 453
a 11 10 111 211
a 11 12 424 524
a 11 13 412 512
a 11 14 552 652
a 11 15 608 708
a 11 16 460 560
a 11 17 380 480
a 11 18 250 350
a 11 19 70 170
a 11 20 250 350
a 11 21 514 614
a 11 22 604 704
a 11 23 694 794
a 11 24 540 640
a 11 25 636 736
a 11 26 335 435
a 12 1 166 266
a 12 2 234 334
a 12 3 111 211
a 12 4 158 258
a 12 5 353 453
a 12 6 254 354
a 12 7 335 435
a 12 8 407 507
a 12 9 254 354
a 12 10 320 420
a 12 11 424 524
a 12 13 223 323
a 12 14 430 530
a 12 15 360 460
a 12 16 427 527
a 12 17 452 552
a 12 18 304 404
a 12 19 430 530
a 12 20 304 404
a 12 21 158 258
a 12 22 254 354
a 12 23 304 404
a 12 24 150 250
a 12 25 212 312
a 12 26 150 250
a 13 1 264 364
a 13 2 94 194
a 13 3 320 420
a 13 4 254 354
a 13 5 158 258
a 13 6 70 170
a 13 7 269 369
a 13 8 269 369
a 13 9 430 530
a 13 10 350 450
a 13 11 412 512
a 13 12 223 323
a 13 14 212 312
a 13 15 200 300
a 13 16 206 306
a 13 17 254 354
a 13 18 180 280
a 13 19 380 480
a 13 20 427 527
a 13 21 158 258
a 13 22 212 312
a 13 23 320 420
a 13 24 364 464
a 13 25 353 453
a 13 26 111 211
a 14 1 468 568
a 14 2 211 311
a 14 3 531 631
a 14 4 412 512
a 14 5 200 300
a 14 6 223 323
a 14 7 403 503
a 14 8 333 433
a 14 9 640 740
a 14 10 522 622
a 14 11 552 652
a 14 12 430 530
a 14 13 212 312
a 14 15 158 258
a 14 16 111 211
a 14 17 223 323
a 14 18 304 404
a 14 19 500 600
a 14 20 626 726
a 14 21 316 416
a 14 22 300 400
a 14 23 403 503
a 14 24 559 659
a 14 25 509 609
a 14 26 320 420
a 15 1 453 553
a 15 2 130 230
a 15 3 471 571
a 15 4 291 391
a 15 5 291 391
a 15 6 254 354
a 15 7 460 560
a 15 8 429 529
a 15 9 604 704
a 15 10 550 650
a 15 11 608 708
a 15 12 360 460
a 15 13 200 300
a 15 14 158 258
a 15 16 250 350
a 15 17 353 453
a 15 18 364 464
a 15 19 570 670
a 15 20 618 718
a 15 21 212 312
a 15 22 158 258
a 15 23 250 350
a 15 24 460 560
a 15 25 380 480
a 15 26 304 404
a 16 1 424 524
a 16 2 251 351
a 16 3 514 614
a 16 4 450 550
a 16 5 111 211
a 16 6 180 280
a 16 7 316 416
a 16 8 230 330
a 16 9 602 702
a 16 10 447 547
a 16 11 460 560
a 16 12 427 527
a 16 13 206 306
a 16 14 111 211
a 16 15 250 350
a 16 17 111 211
a 16 18 223 323
a 16 19 403 503
a 16 20 570 670
a 16 21 350 450
a 16 22 364 464
a 16 23 474 574
a 16 24 570 670
a 16 25 550 650
a 16 26 291 391
a 17 1 407 507
a 17 2 326 426
a 17 3 522 622
a 17 4 509 609
a 17 5 100 200
a 17 6 200 300
a 17 7 250 350
a 17 8 139 239
a 17 9 583 683
a 17 10 390 490
a 17 11 380 480
a 17 12 452 552
a 17 13 254 354
a 17 14 223 323
a 17 15 353 453
a 17 16 111 211
a 17 18 180 280
a 17 19 316 416
a 17 20 531 631
a 17 21 412 512
a 17 22 447 547
a 17 23 559 659
a 17 24 602 702
a 17 25 608 708
a 17 26 304 404
a 18 1 228 328
a 18 2 274 374
a 18 3 353 453
a 18 4 403 503
a 18 5 111 211
a 18 6 111 211
a 18 7 100 200
a 18 8 104 204
a 18 9 403 503
a 18 10 223 323
a 18 11 250 350
a 18 12 304 404
a 18 13 180 280
a 18 14 304 404
a 18 15 364 464
a 18 16 223 323
a 18 17 180 280
a 18 19 206 306
a 18 20 353 453
a 18 21 320 420
a 18 22 390 490
a 18 23 494 594
a 18 24 452 552
a 18 25 492 592
a 18 26 158 258
a 19 1 282 382
a 19 2 474 574
a 19 3 427 527
a 19 4 565 665
a 19 5 300 400
a 19 6 316 416
a 19 7 111 211
a 19 8 177 277
a 19 9 400 500
a 19 10 150 250
a 19 11 70 170
a 19 12 430 530
a 19 13 380 480
a 19 14 500 600
a 19 15 570 670
a 19 16 403 503
a 19 17 316 416
a 19 18 206 306
a 19 20 304 404
a 19 21 500 600
a 19 22 583 683
a 19 23 680 780
a 19 24 559 659
a 19 25 640 740
a 19 26 320 420
a 20 1 164 264
a 20 2 490 590
a 20 3 223 323
a 20 4 460 560
a 20 5 460 560
a 20 6 403 503
a 20 7 291 391
a 20 8 413 513
a 20 9 111 211
a 20 10 158 258
a 20 11 250 350
a 20 12 304 404
a 20 13 427 527
a 20 14 626 726
a 20 15 618 718
a 20 16 570 670
a 20 17 531 631
a 20 18 353 453
a 20 19 304 404
a 20 21 450 550
a 20 22 550 650
a 20 23 608 708
a 20 24 360 460
a 20 25 492 592
a 20 26 316 416
a 21 1 292 392
a 21 2 104 204
a 21 3 269 369
a 21 4 100 200
a 21 5 316 416
a 21 6 223 323
a 21 7 390 490
a 21 8 418 518
a 21 9 412 512
a 21 10 427 527
a 21 11 514 614
a 21 12 158 258
a 21 13 158 258
a 21 14 316 416
a 21 15 212 312
a 21 16 350 450
a 21 17 412 512
a 21 18 320 420
a 21 19 500 600
a 21 20 450 550
a 21 22 100 200
a 21 23 180 280
a 21 24 250 350
a 21 25 200 300
a 21 26 180 280
a 22 1 392 492
a 22 2 122 222
a 22 3 364 464
a 22 4 141 241
a 22 5 360 460
a 22 6 282 382
a 22 7 471 571
a 22 8 481 581
a 22 9 509 609
a 22 10 522 622
a 22 11 604 704
a 22 12 254 354
a 22 13 212 312
a 22 14 300 400
a 22 15 158 258
a 22 16 364 464
a 22 17 447 547
a 22 18 390 490
a 22 19 583 683
a 22 20 550 650
a 22 21 100 200
a 22 23 111 211
a 22 24 320 420
a 22 25 223 323
a 22 26 269 369
a 23 1 461 561
a 23 2 233 333
a 23 3 400 500
a 23 4 150 250
a 23 5 471 571
a 23 6 390 490
a 23 7 570 670
a 23 8 588 688
a 23 9 550 650
a 23 10 604 704
a 23 11 694 794
a 23 12 304 404
a 23 13 320 420
a 23 14 403 503
a 23 15 250 350
a 23 16 474 574
a 23 17 559 659
a 23 18 494 594
a 23 19 680 780
a 23 20 608 708
a 23 21 180 280
a 23 22 111 211
a 23 24 316 416
a 23 25 180 280
a 23 26 360 460
a 24 1 277 377
a 24 2 349 449
a 24 3 141 241
a 24 4 180 280
a 24 5 502 602
a 24 6 403 503
a 24 7 474 574
a 24 8 555 655
a 24 9 269 369
a 24 10 430 530
a 24 11 540 640
a 24 12 150 250
a 24 13 364 464
a 24 14 559 659
a 24 15 460 560
a 24 16 570 670
a 24 17 602 702
a 24 18 452 552
a 24 19 559 659
a 24 20 360 460
a 24 21 250 350
a 24 22 320 420
a 24 23 316 416
a 24 25 150 250
a 24 26 300 400
a 25 1 376 476
a 25 2 301 401
a 25 3 269 369
a 25 4 100 200
a 25 5 509 609
a 25 6 412 512
a 25 7 540 640
a 25 8 596 696
a 25 9 412 512
a 25 10 531 631
a 25 11 636 736
a 25 12 212 312
a 25 13 353 453
a 25 14 509 609
a 25 15 380 480
a 25 16 550 650
a 25 17 608 708
a 25 18 492 592
a 25 19 640 740
a 25 20 492 592
a 25 21 200 300
a 25 22 223 323
a 25 23 180 280
a 25 24 150 250
a 25 26 335 435
